 &control
    calculation  = 'scf'
    prefix       = 'MgO'
    outdir='./tmp'
    verbosity    = 'high'
    restart_mode = 'from_scratch'
    disk_io      = 'low'
!    tprnfor 	 = .true.
!    tstress 	 = .true.
    pseudo_dir   = 'UPF'
 /
 &system
    ibrav= 2 
        celldm(1) = 7.98484877050951
    nat  = 2
    ntyp = 2
    ecutwfc = 100.0
    nspin = 1
 /
 &electrons
    conv_thr =  1.0d-14
 /
 &ions
 /
 &cell
 /
ATOMIC_SPECIES
Mg  24.3050  Mg_ONCV_PBE-1.0.UPF
O   15.999    O_ONCV_PBE-1.0.UPF
ATOMIC_POSITIONS crystal
Mg 0 0 0 
O  .5 .5 .5  
K_POINTS  automatic
   3 3 3  1 1 1   ! << come wenco & baroni

