 &input
  fildyn='dyn',
  zasr='simple',
  flfrc='mat2R'
 /

