 &control
    calculation = 'scf'
    restart_mode='from_scratch',
    prefix='silicon-##NUMBER##',
    tstress = .true.
    tprnfor = .true.
    pseudo_dir = './',
    outdir='./tmp'
 /
 &system
    ibrav=  0, 
    nat=  ##NATOMS##,
    ntyp= 1,
    ecutwfc =48.0,
    !nosym=.true.
 /
 &electrons
    conv_thr =  1.0d-12
 /
ATOMIC_SPECIES
 Si  28.086  Si.pz-vbc.UPF
K_POINTS automatic
 2 2 2  0 0 0
##CELL##
##COORDINATES##

