 &input
  fildyn='dyn',
  zasr='simple',
  flfrc='Silicon.444.fc'
 /

