 &control
    calculation='scf'
    restart_mode='from_scratch',
    prefix='silicon',
    pseudo_dir = '../',
    outdir='../tmp'
 /
 &system
    ibrav=  2,
    celldm(1) = 10.20
    nat=  2,
    ntyp= 1,
    ecutwfc = 24
 /
 &electrons
! It is important for phonons that the 
! ground-state calculation is well converged.
    conv_thr =  1.0d-12
 /
ATOMIC_SPECIES
 Si  0.0  Si.pz-rrkj.UPF
ATOMIC_POSITIONS
 Si 0.00 0.00 0.00
 Si 0.25 0.25 0.25
K_POINTS AUTOMATIC
 4 4 4  0 0 0


