 &control
    calculation = 'scf'
    restart_mode='from_scratch',
    prefix='silicon',
    tstress = .true.
    tprnfor = .true.
    pseudo_dir = './',
    outdir='./tmp'
 /
 &system
    ibrav=  2,
      celldm(1) =10.22752554,
      nat=  2,
      ntyp= 1,
    ecutwfc =48.0,
    nbnd=8
    !nosym=.true.
 /
 &electrons
    conv_thr =  1.0d-12
 /
 &ions
 /
 &cell
 /
ATOMIC_SPECIES
 Si  28.086  Si.pz-vbc.UPF
ATOMIC_POSITIONS alat
 Si 0.00 0.00 0.00
 Si 0.25 0.25 0.25
K_POINTS automatic
 4 4 4  0 0 0

