&CONTROL
  calculation = 'scf',
  prefix = 'MoS2b',
  restart_mode = 'from_scratch',
  disk_io='low'
/
&SYSTEM
  ecutwfc = 12 ! converged:  100
  ibrav = 0,
  nat = 3,
  ntyp = 2,
/
&ELECTRONS
  conv_thr =   1.0d-14,
/
ATOMIC_SPECIES
Mo  95.940000 Mo.pz-noc-nc.UPF
S   32.066000 S.pz-noc-nc.UPF
ATOMIC_POSITIONS angstrom
Mo       0.000000000   1.828555595   0.000000000
S        1.583575598   0.914277798   1.583744182
S        1.583575598   0.914277798  -1.583744182
K_POINTS automatic
 2  2  1 0 0 0
! converged: 16 16 1 0 0 0
CELL_PARAMETERS angstrom
   3.167151196   0.000000000   0.000000000
  -1.583575598   2.742833393   0.000000000
   0.000000000   0.000000000  18.518363368
