graphene for phonons
 &inputph
  tr2_ph=1.0d-15 !20,
  prefix='gene',
  epsil=.false.,
  trans=.true.,
  zue=.false.,
  iverbosity=1

  ldisp=.true.
   nq1=4, nq2=4, nq3=1

  fildyn='FILDYN/dyn',

  fildrho='drho',
    drho_star%open = .true.
    drho_star%ext  = 'drho_rot'
 /

