graphene for phonons
 &inputph
  tr2_ph=1.0d-20,
  prefix='gene',

  ldisp=.true.
   nq1=2, nq2=2, nq3=1
  ! 8x8x1 grid is recommended!

  fildyn='dyn',

  fildrho='drho',
    drho_star%open = .true.
    drho_star%ext  = 'drho_rot'
 /

