 &input
   fildyn  =  'dyn'
   flfrc   =  'mat2R'
 /
