Ph
 &inputph 
    prefix='silicon'
    outdir='./tmp/',
    fildyn='dyn',
    tr2_ph=1.0d-16
    trans=.true.,
    epsil=.false.,
    ldisp=.true.,
    nq1=4,
    nq2=4,
    nq3=4,
/
