 &control
    calculation = 'scf' 
    prefix='gene'
    verbosity='high'
    restart_mode='from_scratch'
    disk_io='low'
 /
 &system
    ibrav=  4
        celldm(1) = 4.60742348
        celldm(3) = 3.0 ! ~7A
    nat=  2,
    ntyp= 1,
    ecutwfc=  70 ! converged: 70
    occupations = 'smearing'
        smearing='mv' 
        degauss=0.25
    nspin = 1
 /
 &electrons
    conv_thr =  1.0d-12
 /
ATOMIC_SPECIES
 C    12.0107  C.pbe-mt_fhi.UPF
 C    12.0107  C.adc_nc.UPF
ATOMIC_POSITIONS alat
 C  0.5   0.28868  0
 C  0.5  -0.28868  0
K_POINTS  automatic
  8 8 1  0 0 0
! converged:  32 32 1   0 0 0

