 &control
    calculation = 'md'
    restart_mode='from_scratch',
    prefix='silicon',
    pseudo_dir = './',
    verbosity="normal"

    nstep = 100000    
    !dt = 20.671 ! 0.001 picosec
    dt = 40 ! 0.001 picosec
 /
 &system
    ibrav=  0, 
    ecutwfc =100.0,
    nat= 128, ntyp= 1

    nosym = .true.
    noinv = .true.
 /
 &electrons
    conv_thr =  1.0d-7
 /
 &ions
    tempw = 300
    nraise = 3
    ion_dynamics = 'verlet'
    ion_temperature='svr'
 /
 &cell
 /
ATOMIC_SPECIES
  C  12.0  C.upf
CELL_PARAMETERS bohr
  -13.48400000    0.00000000   13.48400000
    0.00000000   13.48400000   13.48400000
  -13.48400000   13.48400000    0.00000000
ATOMIC_POSITIONS bohr
C      0.00000000    0.03000000    0.00000000
C      1.68550000    1.68550000    1.68550000
C     -3.37100000    3.37100000    0.00000000
C     -1.68550000    5.05650000    1.68550000
C     -6.74200000    6.74200000    0.00000000
C     -5.05650000    8.42750000    1.68550000
C    -10.11300000   10.11300000    0.00000000
C     -8.42750000   11.79850000    1.68550000
C      0.00000000    3.37100000    3.37100000
C      1.68550000    5.05650000    5.05650000
C     -3.37100000    6.74200000    3.37100000
C     -1.68550000    8.42750000    5.05650000
C     -6.74200000   10.11300000    3.37100000
C     -5.05650000   11.79850000    5.05650000
C    -10.11300000   13.48400000    3.37100000
C     -8.42750000   15.16950000    5.05650000
C      0.00000000    6.74200000    6.74200000
C      1.68550000    8.42750000    8.42750000
C     -3.37100000   10.11300000    6.74200000
C     -1.68550000   11.79850000    8.42750000
C     -6.74200000   13.48400000    6.74200000
C     -5.05650000   15.16950000    8.42750000
C    -10.11300000   16.85500000    6.74200000
C     -8.42750000   18.54050000    8.42750000
C      0.00000000   10.11300000   10.11300000
C      1.68550000   11.79850000   11.79850000
C     -3.37100000   13.48400000   10.11300000
C     -1.68550000   15.16950000   11.79850000
C     -6.74200000   16.85500000   10.11300000
C     -5.05650000   18.54050000   11.79850000
C    -10.11300000   20.22600000   10.11300000
C     -8.42750000   21.91150000   11.79850000
C     -3.37100000    0.00000000    3.37100000
C     -1.68550000    1.68550000    5.05650000
C     -6.74200000    3.37100000    3.37100000
C     -5.05650000    5.05650000    5.05650000
C    -10.11300000    6.74200000    3.37100000
C     -8.42750000    8.42750000    5.05650000
C    -13.48400000   10.11300000    3.37100000
C    -11.79850000   11.79850000    5.05650000
C     -3.37100000    3.37100000    6.74200000
C     -1.68550000    5.05650000    8.42750000
C     -6.74200000    6.74200000    6.74200000
C     -5.05650000    8.42750000    8.42750000
C    -10.11300000   10.11300000    6.74200000
C     -8.42750000   11.79850000    8.42750000
C    -13.48400000   13.48400000    6.74200000
C    -11.79850000   15.16950000    8.42750000
C     -3.37100000    6.74200000   10.11300000
C     -1.68550000    8.42750000   11.79850000
C     -6.74200000   10.11300000   10.11300000
C     -5.05650000   11.79850000   11.79850000
C    -10.11300000   13.48400000   10.11300000
C     -8.42750000   15.16950000   11.79850000
C    -13.48400000   16.85500000   10.11300000
C    -11.79850000   18.54050000   11.79850000
C     -3.37100000   10.11300000   13.48400000
C     -1.68550000   11.79850000   15.16950000
C     -6.74200000   13.48400000   13.48400000
C     -5.05650000   15.16950000   15.16950000
C    -10.11300000   16.85500000   13.48400000
C     -8.42750000   18.54050000   15.16950000
C    -13.48400000   20.22600000   13.48400000
C    -11.79850000   21.91150000   15.16950000
C     -6.74200000    0.00000000    6.74200000
C     -5.05650000    1.68550000    8.42750000
C    -10.11300000    3.37100000    6.74200000
C     -8.42750000    5.05650000    8.42750000
C    -13.48400000    6.74200000    6.74200000
C    -11.79850000    8.42750000    8.42750000
C    -16.85500000   10.11300000    6.74200000
C    -15.16950000   11.79850000    8.42750000
C     -6.74200000    3.37100000   10.11300000
C     -5.05650000    5.05650000   11.79850000
C    -10.11300000    6.74200000   10.11300000
C     -8.42750000    8.42750000   11.79850000
C    -13.48400000   10.11300000   10.11300000
C    -11.79850000   11.79850000   11.79850000
C    -16.85500000   13.48400000   10.11300000
C    -15.16950000   15.16950000   11.79850000
C     -6.74200000    6.74200000   13.48400000
C     -5.05650000    8.42750000   15.16950000
C    -10.11300000   10.11300000   13.48400000
C     -8.42750000   11.79850000   15.16950000
C    -13.48400000   13.48400000   13.48400000
C    -11.79850000   15.16950000   15.16950000
C    -16.85500000   16.85500000   13.48400000
C    -15.16950000   18.54050000   15.16950000
C     -6.74200000   10.11300000   16.85500000
C     -5.05650000   11.79850000   18.54050000
C    -10.11300000   13.48400000   16.85500000
C     -8.42750000   15.16950000   18.54050000
C    -13.48400000   16.85500000   16.85500000
C    -11.79850000   18.54050000   18.54050000
C    -16.85500000   20.22600000   16.85500000
C    -15.16950000   21.91150000   18.54050000
C    -10.11300000    0.00000000   10.11300000
C     -8.42750000    1.68550000   11.79850000
C    -13.48400000    3.37100000   10.11300000
C    -11.79850000    5.05650000   11.79850000
C    -16.85500000    6.74200000   10.11300000
C    -15.16950000    8.42750000   11.79850000
C    -20.22600000   10.11300000   10.11300000
C    -18.54050000   11.79850000   11.79850000
C    -10.11300000    3.37100000   13.48400000
C     -8.42750000    5.05650000   15.16950000
C    -13.48400000    6.74200000   13.48400000
C    -11.79850000    8.42750000   15.16950000
C    -16.85500000   10.11300000   13.48400000
C    -15.16950000   11.79850000   15.16950000
C    -20.22600000   13.48400000   13.48400000
C    -18.54050000   15.16950000   15.16950000
C    -10.11300000    6.74200000   16.85500000
C     -8.42750000    8.42750000   18.54050000
C    -13.48400000   10.11300000   16.85500000
C    -11.79850000   11.79850000   18.54050000
C    -16.85500000   13.48400000   16.85500000
C    -15.16950000   15.16950000   18.54050000
C    -20.22600000   16.85500000   16.85500000
C    -18.54050000   18.54050000   18.54050000
C    -10.11300000   10.11300000   20.22600000
C     -8.42750000   11.79850000   21.91150000
C    -13.48400000   13.48400000   20.22600000
C    -11.79850000   15.16950000   21.91150000
C    -16.85500000   16.85500000   20.22600000
C    -15.16950000   18.54050000   21.91150000
C    -20.22600000   20.22600000   20.22600000
C    -18.54050000   21.91150000   21.91150000
K_POINTS gamma

